Graph with 100 nodes and 1020 edges
0 1
0 5
0 10
0 17
0 29
0 30
0 34
0 41
0 44
0 49
0 50
0 51
0 58
0 69
0 72
0 75
0 76
0 96
0 98
1 3
1 13
1 15
1 17
1 26
1 31
1 33
1 40
1 42
1 47
1 49
1 59
1 60
1 61
1 65
1 68
1 69
1 73
1 74
1 75
1 81
1 84
1 94
1 96
1 97
2 6
2 7
2 9
2 16
2 23
2 25
2 34
2 36
2 39
2 42
2 43
2 44
2 45
2 51
2 53
2 54
2 59
2 65
2 70
2 71
2 80
2 86
3 6
3 7
3 8
3 11
3 13
3 15
3 17
3 32
3 33
3 37
3 43
3 46
3 48
3 50
3 54
3 62
3 69
3 72
3 93
3 96
3 97
4 22
4 23
4 24
4 40
4 42
4 50
4 52
4 53
4 54
4 56
4 69
4 72
4 73
4 76
4 79
4 97
5 8
5 12
5 22
5 32
5 35
5 37
5 49
5 55
5 61
5 63
5 64
5 66
5 72
5 75
5 76
5 79
5 84
5 86
5 91
5 93
6 9
6 23
6 29
6 30
6 32
6 37
6 48
6 53
6 58
6 65
6 70
6 75
6 78
6 82
6 91
6 92
6 96
6 99
7 9
7 23
7 29
7 30
7 35
7 41
7 48
7 66
7 70
7 74
7 76
7 77
7 98
8 10
8 16
8 30
8 37
8 38
8 40
8 45
8 47
8 64
8 65
8 69
8 76
8 79
8 82
8 87
8 88
8 90
8 91
8 95
9 19
9 20
9 32
9 33
9 42
9 46
9 52
9 53
9 58
9 67
9 69
9 73
9 76
9 78
9 80
9 81
9 85
9 94
10 11
10 16
10 18
10 31
10 45
10 48
10 54
10 56
10 71
10 73
10 84
10 90
11 21
11 29
11 33
11 34
11 40
11 42
11 50
11 54
11 67
11 68
11 70
11 85
11 96
11 97
12 18
12 20
12 25
12 27
12 31
12 33
12 41
12 57
12 61
12 63
12 69
12 76
12 78
12 82
12 84
12 85
12 90
12 93
12 97
13 23
13 24
13 26
13 44
13 46
13 49
13 54
13 64
13 65
13 67
13 68
13 72
13 79
13 81
13 86
13 97
14 15
14 21
14 27
14 28
14 29
14 34
14 37
14 42
14 44
14 45
14 54
14 59
14 61
14 63
14 64
14 75
14 76
14 82
14 88
14 94
14 95
15 25
15 29
15 33
15 37
15 40
15 41
15 42
15 49
15 51
15 52
15 56
15 59
15 65
15 69
15 71
15 80
15 89
15 93
15 95
15 97
16 24
16 28
16 38
16 39
16 43
16 44
16 55
16 67
16 71
16 74
16 77
16 78
16 79
16 82
16 85
16 96
17 20
17 32
17 34
17 43
17 46
17 47
17 49
17 52
17 56
17 57
17 58
17 70
17 76
17 80
17 81
17 83
17 88
17 90
17 92
17 95
17 97
18 32
18 36
18 41
18 44
18 48
18 53
18 54
18 55
18 56
18 64
18 68
18 72
18 73
18 81
18 87
18 88
18 89
18 95
18 97
19 20
19 22
19 43
19 44
19 46
19 48
19 51
19 55
19 58
19 63
19 69
19 72
19 74
19 76
19 77
19 82
19 87
19 95
20 25
20 34
20 38
20 42
20 49
20 51
20 53
20 56
20 60
20 63
20 64
20 67
20 72
20 77
20 79
20 82
20 84
21 32
21 38
21 48
21 52
21 54
21 56
21 57
21 58
21 59
21 61
21 78
21 89
21 98
22 30
22 40
22 60
22 64
22 73
22 76
22 82
22 83
22 88
22 93
23 24
23 28
23 34
23 38
23 39
23 45
23 47
23 50
23 52
23 57
23 62
23 63
23 66
23 67
23 70
23 73
23 74
23 77
23 79
23 89
23 90
23 95
23 96
23 98
24 31
24 32
24 36
24 63
24 70
24 73
24 83
24 94
24 95
24 99
25 28
25 32
25 33
25 35
25 39
25 44
25 49
25 50
25 58
25 59
25 62
25 65
25 69
25 73
25 76
25 77
25 78
25 83
25 87
25 94
25 96
26 30
26 36
26 40
26 46
26 51
26 52
26 63
26 64
26 74
26 76
26 79
26 86
26 91
26 98
26 99
27 33
27 36
27 37
27 38
27 42
27 45
27 47
27 49
27 52
27 53
27 55
27 58
27 66
27 69
27 73
27 77
27 78
27 82
27 89
27 90
27 91
27 94
27 97
28 29
28 33
28 34
28 37
28 38
28 40
28 44
28 49
28 52
28 57
28 62
28 65
28 67
28 71
28 86
28 88
29 32
29 33
29 34
29 37
29 40
29 42
29 56
29 67
29 70
29 72
29 77
29 89
29 90
29 95
29 96
30 32
30 39
30 56
30 60
30 61
30 63
30 64
30 68
30 78
30 85
30 98
31 38
31 41
31 43
31 46
31 56
31 64
31 80
31 82
31 90
31 94
31 99
32 33
32 36
32 41
32 42
32 56
32 64
32 66
32 71
32 77
32 79
32 85
32 92
33 39
33 49
33 50
33 61
33 65
33 68
33 71
33 79
33 83
33 85
33 90
33 93
33 94
34 37
34 41
34 45
34 51
34 56
34 58
34 67
34 76
34 83
34 92
34 95
35 37
35 46
35 47
35 50
35 62
35 64
35 69
35 81
35 87
35 89
35 90
35 95
35 99
36 40
36 45
36 53
36 66
36 67
36 84
36 86
36 90
36 92
36 94
36 96
37 46
37 47
37 59
37 60
37 63
37 68
37 79
37 80
37 81
37 88
37 89
37 93
37 96
38 55
38 56
38 57
38 58
38 61
38 64
38 70
38 73
38 75
38 79
38 84
38 86
38 97
39 64
39 65
39 66
39 68
39 71
39 76
39 79
39 83
39 84
39 97
40 50
40 51
40 54
40 55
40 60
40 67
40 84
40 91
40 94
40 96
40 97
40 99
41 50
41 51
41 58
41 64
41 73
41 75
41 77
41 81
41 83
41 87
41 94
41 99
42 46
42 49
42 52
42 57
42 60
42 61
42 63
42 74
42 76
42 83
42 95
42 97
42 99
43 46
43 51
43 53
43 55
43 62
43 65
43 68
43 73
43 80
43 82
43 84
43 94
44 48
44 51
44 54
44 56
44 61
44 64
44 67
44 78
44 88
44 96
44 98
45 47
45 48
45 56
45 57
45 60
45 61
45 69
45 70
45 86
45 89
45 94
45 95
46 65
46 79
46 88
46 95
47 61
47 64
47 66
47 72
47 78
47 79
47 84
47 93
47 94
47 96
47 99
48 65
48 67
48 68
48 82
48 86
48 91
48 93
48 99
49 52
49 53
49 55
49 60
49 65
49 67
49 71
49 72
49 82
49 85
49 88
49 91
49 97
50 56
50 57
50 58
50 61
50 65
50 71
50 72
50 78
50 83
50 84
50 90
50 91
50 97
51 53
51 56
51 57
51 61
51 69
51 75
51 77
51 97
51 99
52 59
52 61
52 62
52 64
52 69
52 74
52 77
52 78
52 81
52 87
52 88
52 96
53 57
53 61
53 62
53 68
53 71
53 78
53 80
53 81
53 83
53 95
53 98
54 59
54 63
54 75
54 76
54 80
54 86
54 87
54 88
54 90
54 97
55 66
55 67
55 71
55 73
55 87
55 91
56 61
56 62
56 63
56 66
56 73
56 78
56 79
56 85
56 89
57 59
57 65
57 74
57 76
57 79
58 60
58 69
58 89
58 92
58 93
59 61
59 62
59 66
59 73
59 78
59 82
59 85
59 86
59 88
59 95
60 61
60 65
60 75
60 76
60 84
60 86
60 88
60 89
60 90
61 65
61 71
61 73
61 80
61 84
61 85
61 88
61 90
61 94
61 99
62 68
62 70
62 73
62 74
62 75
62 84
62 86
62 87
62 98
63 68
63 80
63 82
63 83
63 84
63 95
64 70
64 71
64 73
64 76
64 84
64 87
64 90
64 93
64 94
65 70
65 75
65 76
65 78
65 81
65 89
66 68
66 76
66 80
66 82
66 92
66 96
66 98
67 74
67 76
67 78
67 83
67 92
68 75
68 77
68 81
68 87
68 99
69 73
69 86
69 89
69 90
69 93
69 94
70 71
70 81
70 84
70 91
70 93
70 94
70 95
70 99
71 74
71 89
71 95
72 77
72 80
72 83
72 84
72 92
72 97
72 99
73 76
73 83
73 85
73 93
74 76
74 87
74 88
74 97
75 76
75 78
75 81
75 83
75 84
75 90
75 96
76 77
76 79
76 85
76 89
76 90
76 93
76 94
76 98
77 80
77 81
77 82
77 83
77 84
77 86
77 88
77 89
77 95
77 98
77 99
78 82
78 85
78 96
79 82
79 83
79 87
79 92
79 94
79 95
79 98
80 81
80 83
80 89
80 97
81 84
82 89
82 94
83 85
83 87
83 89
83 94
84 86
84 88
84 91
84 94
84 96
84 97
84 98
84 99
85 92
85 94
85 96
85 98
86 88
86 90
86 93
86 95
86 96
87 88
87 90
88 90
88 97
89 97
90 95
90 98
92 96
93 96
95 96
96 98
